nN = 8;
nR = 48;
nH = 2;

a = [[24, 19, 23, 23, 24, 22, 23, 25, 20, 17, 16, 19, 21, 23, 16, 17, 18, 18, 20, 21, 21, 21, 20, 19, 20, 18, 24, 22, 22, 18, 22, 19, 18, 16, 19, 18, 25, 18, 18, 19, 20, 21, 22, 18, 20, 18, 20, 25], [18, 21, 16, 19, 18, 18, 23, 19, 17, 20, 22, 20, 25, 22, 25, 17, 18, 22, 20, 18, 21, 22, 23, 23, 17, 24, 16, 22, 25, 25, 23, 22, 22, 23, 20, 20, 25, 21, 15, 15, 25, 22, 24, 24, 23, 22, 25, 17], [20, 17, 21, 22, 22, 16, 22, 24, 25, 15, 22, 18, 25, 23, 23, 15, 21, 23, 18, 22, 19, 20, 17, 22, 15, 16, 19, 20, 19, 21, 19, 18, 24, 24, 25, 16, 15, 21, 15, 23, 15, 17, 16, 24, 16, 16, 25, 25], [18, 19, 17, 23, 22, 23, 22, 24, 24, 15, 20, 16, 20, 18, 17, 18, 20, 19, 19, 24, 22, 22, 24, 22, 16, 17, 19, 19, 15, 22, 17, 18, 25, 20, 18, 17, 17, 20, 16, 24, 19, 19, 15, 16, 20, 19, 23, 16], [21, 19, 17, 18, 24, 25, 25, 24, 22, 20, 23, 23, 20, 23, 15, 21, 18, 22, 22, 22, 18, 18, 19, 24, 22, 24, 21, 24, 25, 15, 21, 15, 23, 18, 23, 18, 17, 22, 15, 20, 17, 17, 18, 15, 17, 17, 23, 16], [15, 25, 25, 21, 22, 17, 19, 18, 25, 20, 15, 25, 16, 20, 18, 16, 17, 18, 16, 21, 21, 24, 24, 15, 17, 16, 19, 18, 20, 17, 18, 15, 18, 16, 20, 16, 17, 24, 20, 17, 17, 19, 16, 18, 24, 15, 16, 16], [15, 24, 23, 24, 25, 23, 25, 20, 19, 16, 19, 19, 19, 20, 24, 22, 24, 16, 15, 17, 25, 23, 23, 16, 21, 22, 16, 20, 17, 25, 15, 22, 15, 24, 20, 22, 19, 23, 23, 16, 23, 15, 15, 17, 22, 16, 22, 24], [20, 16, 24, 21, 17, 21, 25, 16, 25, 21, 24, 15, 18, 21, 23, 15, 21, 17, 21, 18, 23, 20, 18, 19, 16, 16, 21, 18, 22, 24, 17, 17, 15, 25, 22, 25, 17, 16, 19, 21, 22, 19, 23, 21, 15, 17, 15, 25]];
c = [[[0, 0, 0, 0, 0, 0, 0, 0, 0, 0, 0, 0, 0, 0, 0, 0, 0, 0, 0, 0, 0, 0, 0, 0, 0, 0, 0, 0, 0, 0, 0, 0, 0, 0, 0, 0, 0, 0, 0, 0, 0, 0, 0, 0, 0, 0, 0, 0], [40, 35, 46, 49, 32, 49, 36, 31, 43, 33, 42, 47, 32, 32, 33, 44, 50, 41, 37, 41, 40, 33, 45, 37, 43, 46, 47, 42, 42, 37, 45, 36, 33, 43, 33, 37, 39, 45, 44, 31, 35, 46, 44, 32, 36, 33, 35, 42], [38, 32, 42, 36, 50, 31, 41, 48, 33, 31, 46, 32, 30, 47, 47, 47, 41, 31, 46, 31, 45, 40, 30, 45, 44, 45, 49, 49, 50, 32, 49, 41, 47, 42, 47, 32, 30, 40, 36, 32, 41, 32, 50, 46, 38, 41, 46, 41], [37, 40, 34, 35, 34, 37, 39, 48, 44, 46, 40, 37, 42, 31, 32, 47, 32, 30, 50, 47, 48, 47, 35, 41, 32, 49, 32, 30, 42, 46, 43, 38, 46, 34, 44, 40, 31, 34, 31, 34, 31, 50, 36, 37, 31, 47, 40, 35], [37, 31, 35, 31, 35, 45, 31, 30, 30, 37, 42, 49, 40, 34, 42, 42, 33, 45, 36, 45, 46, 35, 30, 45, 47, 47, 38, 48, 45, 46, 34, 34, 35, 37, 34, 31, 32, 38, 35, 44, 34, 42, 35, 35, 48, 39, 44, 48], [37, 32, 43, 33, 42, 37, 39, 48, 43, 46, 37, 46, 41, 47, 44, 38, 42, 30, 36, 40, 50, 48, 45, 39, 45, 37, 43, 42, 30, 41, 46, 45, 33, 44, 34, 42, 40, 33, 48, 40, 38, 49, 43, 46, 50, 41, 42, 34], [36, 50, 33, 33, 49, 48, 37, 47, 45, 50, 38, 30, 35, 50, 30, 43, 41, 42, 33, 32, 41, 37, 43, 30, 40, 31, 49, 43, 47, 47, 43, 38, 44, 40, 49, 39, 50, 37, 44, 36, 37, 45, 35, 43, 49, 38, 35, 46], [30, 37, 39, 30, 43, 32, 41, 48, 44, 31, 46, 36, 42, 40, 45, 47, 31, 45, 35, 34, 44, 46, 32, 41, 38, 34, 42, 41, 48, 38, 45, 32, 37, 50, 39, 50, 45, 46, 30, 36, 37, 32, 41, 39, 41, 34, 37, 41]], [[0, 0, 0, 0, 0, 0, 0, 0, 0, 0, 0, 0, 0, 0, 0, 0, 0, 0, 0, 0, 0, 0, 0, 0, 0, 0, 0, 0, 0, 0, 0, 0, 0, 0, 0, 0, 0, 0, 0, 0, 0, 0, 0, 0, 0, 0, 0, 0], [0, 0, 0, 0, 0, 0, 0, 0, 0, 0, 0, 0, 0, 0, 0, 0, 0, 0, 0, 0, 0, 0, 0, 0, 0, 0, 0, 0, 0, 0, 0, 0, 0, 0, 0, 0, 0, 0, 0, 0, 0, 0, 0, 0, 0, 0, 0, 0], [39, 49, 37, 44, 46, 48, 31, 40, 41, 34, 31, 34, 31, 38, 39, 42, 44, 47, 31, 50, 50, 50, 37, 39, 46, 45, 48, 40, 39, 30, 48, 47, 37, 35, 36, 40, 46, 35, 30, 50, 36, 33, 46, 48, 43, 49, 46, 30], [38, 42, 32, 44, 48, 46, 32, 37, 48, 40, 34, 32, 49, 37, 33, 30, 35, 47, 43, 36, 42, 44, 35, 34, 40, 33, 38, 49, 48, 35, 47, 30, 49, 43, 50, 46, 41, 36, 45, 38, 36, 32, 36, 46, 37, 35, 42, 30], [33, 33, 42, 38, 40, 33, 45, 50, 40, 50, 33, 50, 47, 41, 38, 41, 48, 43, 49, 43, 50, 46, 47, 31, 37, 48, 42, 38, 39, 50, 40, 43, 31, 45, 38, 34, 43, 47, 36, 37, 31, 43, 36, 46, 46, 30, 30, 48], [38, 31, 41, 39, 33, 49, 40, 40, 34, 30, 41, 37, 31, 50, 45, 31, 45, 37, 33, 49, 46, 31, 35, 31, 39, 49, 38, 35, 31, 35, 41, 41, 37, 41, 40, 32, 47, 48, 45, 40, 33, 31, 42, 43, 45, 49, 47, 38], [45, 48, 42, 42, 31, 30, 48, 50, 46, 41, 45, 49, 31, 39, 45, 31, 38, 30, 50, 32, 48, 48, 45, 30, 35, 40, 32, 43, 37, 48, 38, 31, 36, 32, 48, 35, 30, 34, 48, 38, 35, 37, 47, 33, 30, 31, 41, 50], [47, 38, 48, 41, 33, 36, 37, 42, 31, 42, 44, 43, 40, 39, 39, 38, 31, 39, 36, 42, 38, 41, 48, 42, 38, 33, 39, 39, 30, 34, 36, 42, 30, 40, 40, 36, 30, 50, 33, 43, 44, 43, 50, 47, 42, 32, 32, 40]], [[0, 0, 0, 0, 0, 0, 0, 0, 0, 0, 0, 0, 0, 0, 0, 0, 0, 0, 0, 0, 0, 0, 0, 0, 0, 0, 0, 0, 0, 0, 0, 0, 0, 0, 0, 0, 0, 0, 0, 0, 0, 0, 0, 0, 0, 0, 0, 0], [0, 0, 0, 0, 0, 0, 0, 0, 0, 0, 0, 0, 0, 0, 0, 0, 0, 0, 0, 0, 0, 0, 0, 0, 0, 0, 0, 0, 0, 0, 0, 0, 0, 0, 0, 0, 0, 0, 0, 0, 0, 0, 0, 0, 0, 0, 0, 0], [0, 0, 0, 0, 0, 0, 0, 0, 0, 0, 0, 0, 0, 0, 0, 0, 0, 0, 0, 0, 0, 0, 0, 0, 0, 0, 0, 0, 0, 0, 0, 0, 0, 0, 0, 0, 0, 0, 0, 0, 0, 0, 0, 0, 0, 0, 0, 0], [39, 41, 37, 41, 48, 33, 40, 36, 34, 47, 36, 32, 43, 46, 30, 48, 36, 49, 42, 43, 42, 40, 42, 50, 39, 38, 39, 38, 49, 36, 30, 38, 40, 45, 46, 33, 38, 47, 41, 41, 50, 47, 30, 42, 45, 50, 36, 30], [32, 37, 45, 31, 30, 47, 35, 42, 41, 50, 38, 38, 32, 39, 45, 40, 30, 34, 48, 45, 49, 30, 48, 40, 30, 48, 30, 40, 47, 31, 31, 33, 36, 37, 46, 41, 43, 49, 39, 37, 39, 30, 39, 32, 35, 36, 31, 37], [48, 50, 31, 46, 37, 42, 42, 42, 34, 36, 31, 37, 39, 36, 46, 41, 38, 35, 47, 45, 44, 40, 33, 30, 41, 34, 40, 31, 42, 50, 36, 46, 36, 38, 45, 34, 43, 49, 40, 46, 39, 41, 50, 38, 44, 50, 45, 50], [42, 31, 34, 42, 34, 44, 36, 48, 45, 46, 34, 47, 49, 33, 41, 38, 32, 47, 33, 43, 32, 43, 30, 47, 42, 44, 48, 36, 42, 42, 30, 45, 30, 47, 40, 47, 34, 31, 40, 48, 49, 36, 49, 47, 49, 42, 38, 40], [49, 45, 47, 38, 44, 31, 46, 32, 47, 47, 43, 32, 35, 41, 35, 42, 47, 50, 48, 42, 40, 49, 48, 40, 43, 34, 44, 45, 35, 32, 33, 30, 48, 33, 50, 42, 44, 44, 30, 33, 41, 47, 36, 48, 39, 46, 42, 36]], [[0, 0, 0, 0, 0, 0, 0, 0, 0, 0, 0, 0, 0, 0, 0, 0, 0, 0, 0, 0, 0, 0, 0, 0, 0, 0, 0, 0, 0, 0, 0, 0, 0, 0, 0, 0, 0, 0, 0, 0, 0, 0, 0, 0, 0, 0, 0, 0], [0, 0, 0, 0, 0, 0, 0, 0, 0, 0, 0, 0, 0, 0, 0, 0, 0, 0, 0, 0, 0, 0, 0, 0, 0, 0, 0, 0, 0, 0, 0, 0, 0, 0, 0, 0, 0, 0, 0, 0, 0, 0, 0, 0, 0, 0, 0, 0], [0, 0, 0, 0, 0, 0, 0, 0, 0, 0, 0, 0, 0, 0, 0, 0, 0, 0, 0, 0, 0, 0, 0, 0, 0, 0, 0, 0, 0, 0, 0, 0, 0, 0, 0, 0, 0, 0, 0, 0, 0, 0, 0, 0, 0, 0, 0, 0], [0, 0, 0, 0, 0, 0, 0, 0, 0, 0, 0, 0, 0, 0, 0, 0, 0, 0, 0, 0, 0, 0, 0, 0, 0, 0, 0, 0, 0, 0, 0, 0, 0, 0, 0, 0, 0, 0, 0, 0, 0, 0, 0, 0, 0, 0, 0, 0], [50, 37, 46, 33, 50, 33, 34, 31, 40, 49, 42, 33, 40, 32, 43, 30, 32, 35, 39, 45, 35, 39, 44, 50, 33, 48, 41, 33, 36, 40, 38, 45, 42, 32, 50, 42, 50, 43, 36, 48, 41, 43, 48, 48, 38, 31, 47, 44], [44, 40, 40, 47, 47, 31, 31, 30, 42, 31, 35, 31, 44, 44, 46, 42, 40, 33, 50, 43, 49, 32, 50, 49, 36, 30, 40, 35, 48, 36, 49, 46, 45, 46, 44, 42, 48, 47, 31, 33, 38, 36, 38, 31, 42, 38, 45, 35], [39, 40, 34, 50, 35, 46, 45, 37, 32, 47, 49, 32, 36, 45, 38, 36, 45, 45, 45, 48, 49, 43, 37, 37, 46, 40, 49, 36, 43, 40, 38, 42, 41, 40, 35, 45, 46, 36, 49, 38, 41, 39, 36, 50, 34, 43, 31, 44], [46, 41, 40, 44, 50, 44, 34, 38, 36, 34, 47, 32, 34, 47, 40, 40, 48, 50, 33, 44, 46, 30, 42, 34, 46, 31, 37, 39, 43, 38, 38, 34, 37, 33, 49, 45, 35, 40, 33, 46, 45, 35, 30, 44, 50, 38, 38, 34]], [[0, 0, 0, 0, 0, 0, 0, 0, 0, 0, 0, 0, 0, 0, 0, 0, 0, 0, 0, 0, 0, 0, 0, 0, 0, 0, 0, 0, 0, 0, 0, 0, 0, 0, 0, 0, 0, 0, 0, 0, 0, 0, 0, 0, 0, 0, 0, 0], [0, 0, 0, 0, 0, 0, 0, 0, 0, 0, 0, 0, 0, 0, 0, 0, 0, 0, 0, 0, 0, 0, 0, 0, 0, 0, 0, 0, 0, 0, 0, 0, 0, 0, 0, 0, 0, 0, 0, 0, 0, 0, 0, 0, 0, 0, 0, 0], [0, 0, 0, 0, 0, 0, 0, 0, 0, 0, 0, 0, 0, 0, 0, 0, 0, 0, 0, 0, 0, 0, 0, 0, 0, 0, 0, 0, 0, 0, 0, 0, 0, 0, 0, 0, 0, 0, 0, 0, 0, 0, 0, 0, 0, 0, 0, 0], [0, 0, 0, 0, 0, 0, 0, 0, 0, 0, 0, 0, 0, 0, 0, 0, 0, 0, 0, 0, 0, 0, 0, 0, 0, 0, 0, 0, 0, 0, 0, 0, 0, 0, 0, 0, 0, 0, 0, 0, 0, 0, 0, 0, 0, 0, 0, 0], [0, 0, 0, 0, 0, 0, 0, 0, 0, 0, 0, 0, 0, 0, 0, 0, 0, 0, 0, 0, 0, 0, 0, 0, 0, 0, 0, 0, 0, 0, 0, 0, 0, 0, 0, 0, 0, 0, 0, 0, 0, 0, 0, 0, 0, 0, 0, 0], [38, 31, 45, 34, 41, 34, 44, 50, 30, 45, 35, 39, 47, 35, 33, 34, 34, 44, 41, 47, 30, 50, 39, 48, 39, 36, 43, 49, 34, 44, 32, 46, 42, 35, 31, 41, 38, 45, 44, 47, 43, 46, 45, 32, 40, 49, 45, 39], [45, 42, 38, 32, 41, 35, 43, 50, 42, 30, 35, 38, 44, 50, 42, 41, 50, 50, 37, 31, 41, 33, 45, 30, 47, 33, 47, 42, 36, 40, 33, 39, 41, 30, 44, 34, 35, 49, 39, 41, 37, 49, 42, 40, 46, 37, 43, 35], [45, 43, 44, 44, 47, 35, 33, 48, 32, 44, 50, 41, 37, 33, 42, 33, 32, 41, 34, 38, 44, 50, 43, 32, 39, 48, 33, 38, 38, 33, 45, 39, 44, 45, 31, 36, 35, 40, 45, 50, 43, 49, 36, 33, 34, 40, 31, 40]], [[0, 0, 0, 0, 0, 0, 0, 0, 0, 0, 0, 0, 0, 0, 0, 0, 0, 0, 0, 0, 0, 0, 0, 0, 0, 0, 0, 0, 0, 0, 0, 0, 0, 0, 0, 0, 0, 0, 0, 0, 0, 0, 0, 0, 0, 0, 0, 0], [0, 0, 0, 0, 0, 0, 0, 0, 0, 0, 0, 0, 0, 0, 0, 0, 0, 0, 0, 0, 0, 0, 0, 0, 0, 0, 0, 0, 0, 0, 0, 0, 0, 0, 0, 0, 0, 0, 0, 0, 0, 0, 0, 0, 0, 0, 0, 0], [0, 0, 0, 0, 0, 0, 0, 0, 0, 0, 0, 0, 0, 0, 0, 0, 0, 0, 0, 0, 0, 0, 0, 0, 0, 0, 0, 0, 0, 0, 0, 0, 0, 0, 0, 0, 0, 0, 0, 0, 0, 0, 0, 0, 0, 0, 0, 0], [0, 0, 0, 0, 0, 0, 0, 0, 0, 0, 0, 0, 0, 0, 0, 0, 0, 0, 0, 0, 0, 0, 0, 0, 0, 0, 0, 0, 0, 0, 0, 0, 0, 0, 0, 0, 0, 0, 0, 0, 0, 0, 0, 0, 0, 0, 0, 0], [0, 0, 0, 0, 0, 0, 0, 0, 0, 0, 0, 0, 0, 0, 0, 0, 0, 0, 0, 0, 0, 0, 0, 0, 0, 0, 0, 0, 0, 0, 0, 0, 0, 0, 0, 0, 0, 0, 0, 0, 0, 0, 0, 0, 0, 0, 0, 0], [0, 0, 0, 0, 0, 0, 0, 0, 0, 0, 0, 0, 0, 0, 0, 0, 0, 0, 0, 0, 0, 0, 0, 0, 0, 0, 0, 0, 0, 0, 0, 0, 0, 0, 0, 0, 0, 0, 0, 0, 0, 0, 0, 0, 0, 0, 0, 0], [30, 43, 33, 47, 46, 45, 41, 33, 33, 47, 43, 34, 38, 34, 45, 34, 35, 31, 38, 43, 44, 47, 49, 45, 30, 30, 37, 46, 49, 36, 32, 32, 36, 50, 43, 33, 39, 36, 32, 49, 37, 37, 31, 48, 38, 37, 49, 37], [48, 43, 50, 48, 44, 42, 50, 50, 46, 50, 49, 32, 47, 43, 35, 44, 39, 33, 30, 42, 37, 35, 40, 41, 35, 47, 37, 38, 50, 43, 39, 37, 45, 47, 44, 31, 47, 43, 45, 34, 47, 42, 49, 33, 49, 43, 37, 46]], [[0, 0, 0, 0, 0, 0, 0, 0, 0, 0, 0, 0, 0, 0, 0, 0, 0, 0, 0, 0, 0, 0, 0, 0, 0, 0, 0, 0, 0, 0, 0, 0, 0, 0, 0, 0, 0, 0, 0, 0, 0, 0, 0, 0, 0, 0, 0, 0], [0, 0, 0, 0, 0, 0, 0, 0, 0, 0, 0, 0, 0, 0, 0, 0, 0, 0, 0, 0, 0, 0, 0, 0, 0, 0, 0, 0, 0, 0, 0, 0, 0, 0, 0, 0, 0, 0, 0, 0, 0, 0, 0, 0, 0, 0, 0, 0], [0, 0, 0, 0, 0, 0, 0, 0, 0, 0, 0, 0, 0, 0, 0, 0, 0, 0, 0, 0, 0, 0, 0, 0, 0, 0, 0, 0, 0, 0, 0, 0, 0, 0, 0, 0, 0, 0, 0, 0, 0, 0, 0, 0, 0, 0, 0, 0], [0, 0, 0, 0, 0, 0, 0, 0, 0, 0, 0, 0, 0, 0, 0, 0, 0, 0, 0, 0, 0, 0, 0, 0, 0, 0, 0, 0, 0, 0, 0, 0, 0, 0, 0, 0, 0, 0, 0, 0, 0, 0, 0, 0, 0, 0, 0, 0], [0, 0, 0, 0, 0, 0, 0, 0, 0, 0, 0, 0, 0, 0, 0, 0, 0, 0, 0, 0, 0, 0, 0, 0, 0, 0, 0, 0, 0, 0, 0, 0, 0, 0, 0, 0, 0, 0, 0, 0, 0, 0, 0, 0, 0, 0, 0, 0], [0, 0, 0, 0, 0, 0, 0, 0, 0, 0, 0, 0, 0, 0, 0, 0, 0, 0, 0, 0, 0, 0, 0, 0, 0, 0, 0, 0, 0, 0, 0, 0, 0, 0, 0, 0, 0, 0, 0, 0, 0, 0, 0, 0, 0, 0, 0, 0], [0, 0, 0, 0, 0, 0, 0, 0, 0, 0, 0, 0, 0, 0, 0, 0, 0, 0, 0, 0, 0, 0, 0, 0, 0, 0, 0, 0, 0, 0, 0, 0, 0, 0, 0, 0, 0, 0, 0, 0, 0, 0, 0, 0, 0, 0, 0, 0], [42, 33, 31, 44, 39, 39, 32, 31, 43, 44, 42, 47, 34, 47, 47, 43, 48, 39, 31, 37, 32, 37, 37, 44, 37, 45, 35, 45, 40, 39, 30, 38, 50, 37, 31, 34, 37, 36, 32, 46, 45, 38, 31, 41, 45, 45, 46, 35]], [[0, 0, 0, 0, 0, 0, 0, 0, 0, 0, 0, 0, 0, 0, 0, 0, 0, 0, 0, 0, 0, 0, 0, 0, 0, 0, 0, 0, 0, 0, 0, 0, 0, 0, 0, 0, 0, 0, 0, 0, 0, 0, 0, 0, 0, 0, 0, 0], [0, 0, 0, 0, 0, 0, 0, 0, 0, 0, 0, 0, 0, 0, 0, 0, 0, 0, 0, 0, 0, 0, 0, 0, 0, 0, 0, 0, 0, 0, 0, 0, 0, 0, 0, 0, 0, 0, 0, 0, 0, 0, 0, 0, 0, 0, 0, 0], [0, 0, 0, 0, 0, 0, 0, 0, 0, 0, 0, 0, 0, 0, 0, 0, 0, 0, 0, 0, 0, 0, 0, 0, 0, 0, 0, 0, 0, 0, 0, 0, 0, 0, 0, 0, 0, 0, 0, 0, 0, 0, 0, 0, 0, 0, 0, 0], [0, 0, 0, 0, 0, 0, 0, 0, 0, 0, 0, 0, 0, 0, 0, 0, 0, 0, 0, 0, 0, 0, 0, 0, 0, 0, 0, 0, 0, 0, 0, 0, 0, 0, 0, 0, 0, 0, 0, 0, 0, 0, 0, 0, 0, 0, 0, 0], [0, 0, 0, 0, 0, 0, 0, 0, 0, 0, 0, 0, 0, 0, 0, 0, 0, 0, 0, 0, 0, 0, 0, 0, 0, 0, 0, 0, 0, 0, 0, 0, 0, 0, 0, 0, 0, 0, 0, 0, 0, 0, 0, 0, 0, 0, 0, 0], [0, 0, 0, 0, 0, 0, 0, 0, 0, 0, 0, 0, 0, 0, 0, 0, 0, 0, 0, 0, 0, 0, 0, 0, 0, 0, 0, 0, 0, 0, 0, 0, 0, 0, 0, 0, 0, 0, 0, 0, 0, 0, 0, 0, 0, 0, 0, 0], [0, 0, 0, 0, 0, 0, 0, 0, 0, 0, 0, 0, 0, 0, 0, 0, 0, 0, 0, 0, 0, 0, 0, 0, 0, 0, 0, 0, 0, 0, 0, 0, 0, 0, 0, 0, 0, 0, 0, 0, 0, 0, 0, 0, 0, 0, 0, 0], [0, 0, 0, 0, 0, 0, 0, 0, 0, 0, 0, 0, 0, 0, 0, 0, 0, 0, 0, 0, 0, 0, 0, 0, 0, 0, 0, 0, 0, 0, 0, 0, 0, 0, 0, 0, 0, 0, 0, 0, 0, 0, 0, 0, 0, 0, 0, 0]]];

q = [[[16, 119], [6, 108], [7, 112], [15, 122], [5, 105], [8, 115], [11, 118], [14, 117], [13, 111], [7, 111], [16, 105], [8, 125], [7, 115], [8, 124], [6, 107], [15, 110], [8, 111], [13, 105], [8, 122], [6, 118], [5, 117], [13, 111], [5, 125], [9, 120], [7, 110], [11, 114], [11, 111], [7, 109], [14, 109], [9, 125], [8, 113], [15, 125], [9, 111], [7, 111], [9, 106], [14, 123], [16, 117], [5, 115], [7, 115], [5, 109], [16, 125], [5, 105], [14, 124], [5, 118], [9, 117], [5, 116], [10, 117], [16, 121]], [[7, 120], [13, 109], [10, 115], [7, 124], [15, 124], [15, 119], [16, 110], [14, 111], [6, 119], [13, 111], [16, 119], [8, 107], [5, 116], [15, 105], [14, 112], [9, 106], [11, 119], [10, 113], [9, 115], [16, 109], [7, 112], [12, 109], [10, 123], [7, 106], [10, 118], [5, 114], [13, 123], [10, 118], [11, 113], [9, 118], [9, 117], [10, 117], [8, 122], [14, 110], [10, 110], [7, 113], [10, 108], [12, 125], [15, 105], [15, 124], [11, 119], [10, 121], [7, 120], [15, 107], [14, 123], [7, 109], [15, 111], [5, 125]], [[15, 108], [10, 121], [11, 123], [10, 108], [8, 111], [7, 124], [8, 115], [9, 118], [13, 121], [7, 120], [15, 105], [14, 117], [13, 112], [6, 120], [10, 108], [10, 114], [7, 109], [9, 121], [7, 125], [5, 105], [12, 111], [8, 108], [5, 123], [16, 110], [11, 121], [5, 120], [15, 107], [12, 124], [14, 107], [11, 108], [5, 120], [5, 110], [13, 109], [11, 123], [8, 125], [8, 120], [15, 109], [14, 107], [11, 122], [5, 115], [8, 121], [11, 119], [7, 117], [15, 121], [5, 106], [8, 120], [16, 113], [8, 118]], [[8, 112], [11, 122], [15, 123], [7, 120], [14, 108], [6, 120], [9, 114], [10, 120], [8, 113], [10, 106], [8, 122], [12, 107], [7, 116], [8, 109], [14, 114], [5, 112], [15, 111], [7, 123], [6, 115], [15, 105], [16, 114], [7, 107], [13, 107], [13, 114], [8, 118], [16, 122], [7, 122], [15, 125], [13, 114], [5, 116], [9, 110], [9, 111], [8, 113], [8, 106], [16, 110], [12, 123], [7, 113], [10, 119], [5, 112], [5, 122], [14, 119], [14, 124], [14, 118], [9, 106], [11, 113], [8, 111], [10, 120], [7, 113]], [[12, 114], [7, 124], [14, 117], [11, 107], [8, 114], [16, 106], [16, 115], [16, 116], [5, 105], [7, 116], [5, 116], [11, 125], [5, 122], [9, 105], [16, 118], [9, 110], [12, 115], [9, 125], [16, 124], [5, 116], [8, 121], [6, 109], [9, 107], [15, 116], [15, 107], [5, 123], [15, 118], [5, 107], [7, 115], [8, 107], [8, 121], [8, 108], [10, 111], [14, 110], [10, 109], [5, 105], [16, 108], [6, 122], [12, 106], [12, 115], [9, 121], [11, 107], [7, 116], [15, 110], [8, 105], [5, 113], [15, 125], [8, 113]], [[5, 116], [12, 114], [10, 118], [12, 125], [8, 115], [9, 118], [12, 114], [10, 107], [14, 116], [9, 120], [12, 112], [12, 112], [6, 111], [14, 124], [6, 105], [6, 116], [7, 109], [13, 122], [8, 114], [12, 118], [13, 118], [9, 111], [11, 114], [7, 116], [14, 122], [16, 111], [6, 112], [14, 121], [5, 108], [11, 114], [12, 113], [9, 124], [12, 113], [11, 111], [7, 120], [14, 108], [7, 117], [16, 108], [11, 112], [6, 120], [15, 112], [7, 112], [15, 124], [9, 114], [10, 121], [10, 118], [14, 116], [11, 120]], [[14, 117], [13, 118], [5, 108], [7, 105], [13, 116], [8, 121], [11, 125], [8, 119], [7, 109], [13, 114], [15, 105], [13, 117], [6, 121], [12, 105], [11, 124], [8, 121], [9, 105], [6, 108], [9, 108], [16, 105], [5, 125], [15, 111], [5, 118], [14, 116], [6, 106], [7, 105], [10, 115], [13, 125], [13, 107], [16, 124], [11, 121], [6, 123], [7, 125], [11, 119], [8, 109], [15, 108], [13, 111], [5, 119], [15, 121], [12, 105], [14, 110], [5, 107], [10, 106], [11, 125], [15, 113], [12, 122], [8, 115], [7, 118]], [[13, 109], [9, 109], [8, 111], [14, 111], [5, 122], [6, 122], [10, 108], [16, 124], [6, 119], [6, 120], [11, 113], [9, 106], [7, 111], [9, 112], [9, 122], [11, 123], [6, 122], [8, 106], [10, 116], [8, 113], [15, 114], [11, 119], [11, 112], [15, 108], [7, 114], [9, 116], [5, 124], [16, 108], [13, 115], [9, 117], [7, 113], [10, 106], [16, 111], [11, 108], [9, 105], [14, 112], [9, 120], [6, 115], [13, 105], [14, 111], [9, 109], [15, 113], [7, 106], [13, 117], [6, 107], [16, 125], [14, 111], [16, 111]]];
Q = [[46, 552], [51, 553], [47, 554], [48, 552], [48, 547], [49, 554], [49, 550], [49, 546]];
